unsat
(:binary-propagations  179
 :conflicts            1
 :final-checks         1
 :max-generation       1
 :max-memory           27.83
 :memory               22.15
 :mk-bool-var          3646
 :mk-clause            1225
 :mk-clause-binary     3915
 :num-allocs           58400244
 :num-checks           1
 :propagations         179
 :quant-instantiations 496
 :restarts             1
 :rlimit-count         403482
 :time                 0.08)
